Route 1: 42 6 148 110 138 2 29 126 143 48 128 145 193 20 25 127 71 90 103 130 5 101 190 80 158 91 159 106 83 14 36
Route 2: 144 10 153 93 86 118 59 45 182 77 33 12 96 13 62 194 141 139 100 74 81 125 112 95 120 109 129 68 66 52
Route 3: 184 196 188 67 132 173 162 187 131 73 50 32 175 133 72 9 19 186 161 146 54 44 197 147 4 156 149 152 105
Route 4: 142 28 107 136 171 99 63 94 60 30 189 16 61 108 122 47 89 155 179 92 24 23 195 11 79
Route 5: 200 41 183 70 178 15 65 199 3 35 116 150 151 69 172 117 160 49 7 165 170 82 17 51 21 58
Route 6: 167 39 137 198 64 46 104 174 26 140 18 57 113 169 192 27 180 84 185 53 37 55 121 123 124 1 88 85 135 111 114 176 157 34
Route 7: 40 119 38 115 164 102 166 76 98 8 134 177 22 78 56 191 43 97 31 181 75 168 154 163 87
Vehicles: 7
Distance: 4103.72
